ilp_joint_2/output/grafting_ilp.lp
Maximize
  1.1443834132729425e-04 Z_76_1_0 + 0.118251063538572 Z_76_1_1
   + 0.3936397281324132 Z_76_1_2 + 0.00287285205661539 Z_76_1_3
   + 0.00239323482655424 Z_102_1_0 + 0.00238250520242284 Z_102_1_1
   + 0.4053396443437652 Z_102_1_2 + 0.00595739750318 Z_102_1_3
   + 0.00157264302824761 Z_12_1_0 + 0.00217039057012103 Z_12_1_1
   + 0.4477697952326439 Z_12_1_2 + 0.00240647371868209 Z_12_1_3
Subject To
 constraint1_761: Z_76_1_0 + Z_76_1_1 + Z_76_1_2 + Z_76_1_3 <= 1
 constraint1_1021: Z_102_1_0 + Z_102_1_1 + Z_102_1_2 + Z_102_1_3 <= 1
 constraint1_121: Z_12_1_0 + Z_12_1_1 + Z_12_1_2 + Z_12_1_3 <= 1
 constraint2_760: Z_76_1_0 <= 1
 constraint2_761: Z_76_1_1 <= 1
 constraint2_762: Z_76_1_2 <= 1
 constraint2_763: Z_76_1_3 <= 1
 constraint2_1020: Z_102_1_0 <= 1
 constraint2_1021: Z_102_1_1 <= 1
 constraint2_1022: Z_102_1_2 <= 1
 constraint2_1023: Z_102_1_3 <= 1
 constraint2_120: Z_12_1_0 <= 1
 constraint2_121: Z_12_1_1 <= 1
 constraint2_122: Z_12_1_2 <= 1
 constraint2_123: Z_12_1_3 <= 1
Bounds
Binaries
 Z_76_1_0 Z_76_1_1 Z_76_1_2 Z_76_1_3 Z_102_1_0 Z_102_1_1 Z_102_1_2
 Z_102_1_3 Z_12_1_0 Z_12_1_1 Z_12_1_2 Z_12_1_3
End
