ilp_joint_2/output/grafting_ilp.mps
NAME grafting_srl_ilp
* Max problem is converted into Min one
ROWS
 N  OBJ
 L  constraint1_761
 L  constraint1_1021
 L  constraint1_121
 L  constraint2_760
 L  constraint2_761
 L  constraint2_762
 L  constraint2_763
 L  constraint2_1020
 L  constraint2_1021
 L  constraint2_1022
 L  constraint2_1023
 L  constraint2_120
 L  constraint2_121
 L  constraint2_122
 L  constraint2_123
COLUMNS
    MARKER    'MARKER'                 'INTORG'
    Z_76_1_0  OBJ       -1.1443834132729425e-04
    Z_76_1_0  constraint1_761  1
    Z_76_1_0  constraint2_760  1
    Z_76_1_1  OBJ       -1.1825106353857201e-01
    Z_76_1_1  constraint1_761  1
    Z_76_1_1  constraint2_761  1
    Z_76_1_2  OBJ       -3.9363972813241321e-01
    Z_76_1_2  constraint1_761  1
    Z_76_1_2  constraint2_762  1
    Z_76_1_3  OBJ       -2.8728520566153946e-03
    Z_76_1_3  constraint1_761  1
    Z_76_1_3  constraint2_763  1
    Z_102_1_0  OBJ       -2.3932348265542358e-03
    Z_102_1_0  constraint1_1021  1
    Z_102_1_0  constraint2_1020  1
    Z_102_1_1  OBJ       -2.3825052024228355e-03
    Z_102_1_1  constraint1_1021  1
    Z_102_1_1  constraint2_1021  1
    Z_102_1_2  OBJ       -4.0533964434376524e-01
    Z_102_1_2  constraint1_1021  1
    Z_102_1_2  constraint2_1022  1
    Z_102_1_3  OBJ       -5.9573975031799982e-03
    Z_102_1_3  constraint1_1021  1
    Z_102_1_3  constraint2_1023  1
    Z_12_1_0  OBJ       -1.5726430282476112e-03
    Z_12_1_0  constraint1_121  1
    Z_12_1_0  constraint2_120  1
    Z_12_1_1  OBJ       -2.1703905701210280e-03
    Z_12_1_1  constraint1_121  1
    Z_12_1_1  constraint2_121  1
    Z_12_1_2  OBJ       -4.4776979523264393e-01
    Z_12_1_2  constraint1_121  1
    Z_12_1_2  constraint2_122  1
    Z_12_1_3  OBJ       -2.4064737186820914e-03
    Z_12_1_3  constraint1_121  1
    Z_12_1_3  constraint2_123  1
    MARKER    'MARKER'                 'INTEND'
RHS
    RHS1      constraint1_761  1
    RHS1      constraint1_1021  1
    RHS1      constraint1_121  1
    RHS1      constraint2_760  1
    RHS1      constraint2_761  1
    RHS1      constraint2_762  1
    RHS1      constraint2_763  1
    RHS1      constraint2_1020  1
    RHS1      constraint2_1021  1
    RHS1      constraint2_1022  1
    RHS1      constraint2_1023  1
    RHS1      constraint2_120  1
    RHS1      constraint2_121  1
    RHS1      constraint2_122  1
    RHS1      constraint2_123  1
BOUNDS
 UP BND1      Z_76_1_0  1
 UP BND1      Z_76_1_1  1
 UP BND1      Z_76_1_2  1
 UP BND1      Z_76_1_3  1
 UP BND1      Z_102_1_0  1
 UP BND1      Z_102_1_1  1
 UP BND1      Z_102_1_2  1
 UP BND1      Z_102_1_3  1
 UP BND1      Z_12_1_0  1
 UP BND1      Z_12_1_1  1
 UP BND1      Z_12_1_2  1
 UP BND1      Z_12_1_3  1
ENDATA
