ilp_joint_2/output/grafting_ilp.sol
# Solution for model grafting_srl_ilp
# Objective value = 1.2467491677088223e+00
Z_76_1_0 0
Z_76_1_1 0
Z_76_1_2 1
Z_76_1_3 0
Z_102_1_0 0
Z_102_1_1 0
Z_102_1_2 1
Z_102_1_3 0
Z_12_1_0 0
Z_12_1_1 0
Z_12_1_2 1
Z_12_1_3 0
